33D32945 STP File, STP Format Version 1.0

SECTION Comments
Name "shell_n10_d3_s17"
Problem "Euclidean Steiner Tree Problem"
Remark "Generated with STPGenerator. 3 dimensions."
END

SECTION Graph
Nodes 10
END

SECTION Coordinates
DDD 0 -0.9237170536 -0.0327755394 0.3816707598
DDD 1 -0.5284901944 -0.3897078772 0.7542054660
DDD 2 0.9663417927 0.1358378687 -0.2184756578
DDD 3 0.5086873553 0.4300063476 -0.7458764748
DDD 4 0.3618964156 -0.4339947739 0.8250330421
DDD 5 -0.4651338211 0.1384102523 -0.8743529782
DDD 6 -0.0476701336 -0.0970786737 -0.9941344424
DDD 7 0.9031087679 0.2933450714 0.3135972298
DDD 8 -0.3946106334 -0.0854742167 -0.9148642557
DDD 9 0.3158825273 0.9392380274 0.1343508723
END
